c Reduced graph for zeroin.i.2 generated by Cyril Grelier
p edge 211 3541
e 1 2
e 1 3
e 1 4
e 1 5
e 1 8
e 1 9
e 1 11
e 1 12
e 1 13
e 1 14
e 1 15
e 1 16
e 1 17
e 1 18
e 1 20
e 1 21
e 1 22
e 1 23
e 1 24
e 1 27
e 1 28
e 1 30
e 1 31
e 1 32
e 1 33
e 1 34
e 1 35
e 1 38
e 1 39
e 1 40
e 1 41
e 1 42
e 1 43
e 1 44
e 1 45
e 1 49
e 1 50
e 1 51
e 1 52
e 1 53
e 1 58
e 1 61
e 1 62
e 1 63
e 1 64
e 1 65
e 1 66
e 1 67
e 1 68
e 1 69
e 1 70
e 1 74
e 1 75
e 1 79
e 1 80
e 1 81
e 1 82
e 1 83
e 1 85
e 1 86
e 1 88
e 1 89
e 1 90
e 1 95
e 1 96
e 1 97
e 1 98
e 1 99
e 1 100
e 1 101
e 1 107
e 1 108
e 1 109
e 1 110
e 1 111
e 1 112
e 1 113
e 1 118
e 1 121
e 1 122
e 1 123
e 1 124
e 1 125
e 1 126
e 1 127
e 1 131
e 1 132
e 1 133
e 1 134
e 1 135
e 1 136
e 1 137
e 1 138
e 1 139
e 1 141
e 1 142
e 1 143
e 1 144
e 1 145
e 1 146
e 1 147
e 1 150
e 1 151
e 1 152
e 1 153
e 1 154
e 1 155
e 1 156
e 1 157
e 1 158
e 1 159
e 1 160
e 1 161
e 1 167
e 1 168
e 1 169
e 1 170
e 1 171
e 1 172
e 1 173
e 1 177
e 1 178
e 1 179
e 1 180
e 1 181
e 1 182
e 1 183
e 1 187
e 1 188
e 1 189
e 1 190
e 1 191
e 1 192
e 1 193
e 1 200
e 1 202
e 1 203
e 1 204
e 1 205
e 1 206
e 2 3
e 2 7
e 2 8
e 2 9
e 2 20
e 2 21
e 2 27
e 2 28
e 2 39
e 2 58
e 2 74
e 2 75
e 2 79
e 2 85
e 2 86
e 2 88
e 2 95
e 2 96
e 2 98
e 2 107
e 2 108
e 2 109
e 2 110
e 2 111
e 2 118
e 2 119
e 2 132
e 2 133
e 2 147
e 2 152
e 2 167
e 2 177
e 2 178
e 2 187
e 2 188
e 2 200
e 3 7
e 3 8
e 3 9
e 3 20
e 3 27
e 3 28
e 3 58
e 3 74
e 3 75
e 3 85
e 3 86
e 3 95
e 3 96
e 3 107
e 3 108
e 3 109
e 3 110
e 3 111
e 3 118
e 3 119
e 3 147
e 3 152
e 3 167
e 3 177
e 3 178
e 3 187
e 3 188
e 3 200
e 4 7
e 4 9
e 4 10
e 4 29
e 4 48
e 4 58
e 4 59
e 4 60
e 4 74
e 4 76
e 4 77
e 4 78
e 4 85
e 4 87
e 4 95
e 4 96
e 4 107
e 4 108
e 4 118
e 4 119
e 4 120
e 4 140
e 4 147
e 4 148
e 4 149
e 4 200
e 4 201
e 5 7
e 5 8
e 5 9
e 5 20
e 5 21
e 5 22
e 5 27
e 5 28
e 5 43
e 5 58
e 5 74
e 5 75
e 5 85
e 5 86
e 5 95
e 5 96
e 5 107
e 5 108
e 5 109
e 5 110
e 5 111
e 5 118
e 5 119
e 5 147
e 5 177
e 5 200
e 7 10
e 7 11
e 7 12
e 7 13
e 7 14
e 7 15
e 7 16
e 7 17
e 7 18
e 7 20
e 7 21
e 7 22
e 7 23
e 7 24
e 7 28
e 7 29
e 7 30
e 7 31
e 7 32
e 7 33
e 7 34
e 7 35
e 7 38
e 7 39
e 7 40
e 7 41
e 7 42
e 7 43
e 7 44
e 7 45
e 7 48
e 7 49
e 7 50
e 7 51
e 7 52
e 7 53
e 7 59
e 7 60
e 7 61
e 7 62
e 7 63
e 7 64
e 7 65
e 7 66
e 7 67
e 7 68
e 7 69
e 7 70
e 7 75
e 7 76
e 7 77
e 7 78
e 7 79
e 7 80
e 7 81
e 7 82
e 7 83
e 7 87
e 7 88
e 7 89
e 7 90
e 7 97
e 7 98
e 7 99
e 7 100
e 7 101
e 7 110
e 7 111
e 7 112
e 7 113
e 7 119
e 7 120
e 7 121
e 7 122
e 7 123
e 7 124
e 7 125
e 7 126
e 7 127
e 7 131
e 7 132
e 7 133
e 7 134
e 7 135
e 7 136
e 7 137
e 7 138
e 7 139
e 7 140
e 7 141
e 7 142
e 7 143
e 7 144
e 7 145
e 7 146
e 7 148
e 7 149
e 7 150
e 7 151
e 7 152
e 7 153
e 7 154
e 7 155
e 7 156
e 7 157
e 7 158
e 7 159
e 7 160
e 7 161
e 7 167
e 7 168
e 7 169
e 7 170
e 7 171
e 7 172
e 7 173
e 7 177
e 7 178
e 7 179
e 7 180
e 7 181
e 7 182
e 7 183
e 7 187
e 7 188
e 7 189
e 7 190
e 7 191
e 7 192
e 7 193
e 7 201
e 7 202
e 7 203
e 7 204
e 7 205
e 7 206
e 8 9
e 8 11
e 8 12
e 8 13
e 8 14
e 8 15
e 8 16
e 8 17
e 8 18
e 8 20
e 8 21
e 8 22
e 8 23
e 8 24
e 8 27
e 8 28
e 8 30
e 8 31
e 8 32
e 8 33
e 8 34
e 8 35
e 8 38
e 8 39
e 8 40
e 8 41
e 8 42
e 8 43
e 8 44
e 8 45
e 8 49
e 8 50
e 8 51
e 8 52
e 8 53
e 8 58
e 8 61
e 8 62
e 8 63
e 8 64
e 8 65
e 8 66
e 8 67
e 8 68
e 8 69
e 8 70
e 8 74
e 8 75
e 8 79
e 8 80
e 8 81
e 8 82
e 8 83
e 8 85
e 8 86
e 8 88
e 8 89
e 8 90
e 8 95
e 8 96
e 8 97
e 8 98
e 8 99
e 8 100
e 8 101
e 8 107
e 8 108
e 8 109
e 8 110
e 8 111
e 8 112
e 8 113
e 8 118
e 8 121
e 8 123
e 8 124
e 8 125
e 8 126
e 8 127
e 8 132
e 8 133
e 8 134
e 8 135
e 8 136
e 8 137
e 8 138
e 8 139
e 8 143
e 8 145
e 8 146
e 8 147
e 8 150
e 8 151
e 8 152
e 8 153
e 8 157
e 8 158
e 8 159
e 8 161
e 8 167
e 8 168
e 8 169
e 8 170
e 8 171
e 8 172
e 8 173
e 8 177
e 8 178
e 8 179
e 8 180
e 8 181
e 8 182
e 8 183
e 8 187
e 8 188
e 8 189
e 8 190
e 8 191
e 8 192
e 8 193
e 8 200
e 8 202
e 8 203
e 8 204
e 8 205
e 8 206
e 9 11
e 9 12
e 9 13
e 9 14
e 9 15
e 9 16
e 9 17
e 9 18
e 9 20
e 9 21
e 9 22
e 9 23
e 9 24
e 9 27
e 9 28
e 9 30
e 9 31
e 9 32
e 9 33
e 9 34
e 9 35
e 9 38
e 9 39
e 9 40
e 9 41
e 9 42
e 9 43
e 9 44
e 9 45
e 9 49
e 9 50
e 9 51
e 9 52
e 9 53
e 9 58
e 9 61
e 9 62
e 9 63
e 9 65
e 9 66
e 9 67
e 9 68
e 9 69
e 9 70
e 9 74
e 9 75
e 9 79
e 9 80
e 9 81
e 9 82
e 9 83
e 9 85
e 9 86
e 9 88
e 9 89
e 9 90
e 9 95
e 9 96
e 9 98
e 9 99
e 9 100
e 9 101
e 9 107
e 9 108
e 9 109
e 9 110
e 9 111
e 9 112
e 9 113
e 9 118
e 9 121
e 9 122
e 9 123
e 9 124
e 9 125
e 9 126
e 9 127
e 9 131
e 9 132
e 9 133
e 9 134
e 9 135
e 9 136
e 9 137
e 9 138
e 9 139
e 9 141
e 9 143
e 9 145
e 9 146
e 9 147
e 9 152
e 9 153
e 9 154
e 9 155
e 9 157
e 9 158
e 9 159
e 9 161
e 9 167
e 9 169
e 9 170
e 9 171
e 9 172
e 9 173
e 9 177
e 9 178
e 9 179
e 9 181
e 9 182
e 9 183
e 9 187
e 9 188
e 9 189
e 9 191
e 9 192
e 9 193
e 9 200
e 9 202
e 9 203
e 9 204
e 9 205
e 9 206
e 10 29
e 10 48
e 10 51
e 10 59
e 10 60
e 10 62
e 10 64
e 10 76
e 10 77
e 10 78
e 10 81
e 10 87
e 10 97
e 10 119
e 10 120
e 10 122
e 10 131
e 10 139
e 10 140
e 10 141
e 10 142
e 10 144
e 10 148
e 10 149
e 10 150
e 10 151
e 10 154
e 10 155
e 10 156
e 10 160
e 10 168
e 10 180
e 10 190
e 10 201
e 11 15
e 11 20
e 11 27
e 11 28
e 11 38
e 11 58
e 11 68
e 11 74
e 11 75
e 11 85
e 11 86
e 11 95
e 11 96
e 11 107
e 11 108
e 11 109
e 11 110
e 11 111
e 11 118
e 11 119
e 11 137
e 11 147
e 11 177
e 11 178
e 11 187
e 11 200
e 12 20
e 12 27
e 12 28
e 12 40
e 12 58
e 12 61
e 12 74
e 12 75
e 12 85
e 12 86
e 12 95
e 12 96
e 12 107
e 12 108
e 12 109
e 12 110
e 12 111
e 12 118
e 12 119
e 12 147
e 12 177
e 12 178
e 12 187
e 12 189
e 12 200
e 13 23
e 13 27
e 13 44
e 13 58
e 13 59
e 13 62
e 13 74
e 13 85
e 13 86
e 13 95
e 13 96
e 13 107
e 13 108
e 13 109
e 13 110
e 13 118
e 13 119
e 13 121
e 13 139
e 13 147
e 13 153
e 13 179
e 13 181
e 13 200
e 14 20
e 14 21
e 14 22
e 14 27
e 14 28
e 14 58
e 14 74
e 14 75
e 14 85
e 14 86
e 14 95
e 14 96
e 14 107
e 14 108
e 14 109
e 14 110
e 14 111
e 14 118
e 14 119
e 14 147
e 14 177
e 14 178
e 14 187
e 14 200
e 15 20
e 15 27
e 15 28
e 15 38
e 15 58
e 15 74
e 15 75
e 15 85
e 15 86
e 15 95
e 15 96
e 15 107
e 15 108
e 15 109
e 15 110
e 15 111
e 15 118
e 15 119
e 15 147
e 15 177
e 15 178
e 15 187
e 15 200
e 16 20
e 16 27
e 16 28
e 16 58
e 16 61
e 16 74
e 16 75
e 16 85
e 16 86
e 16 95
e 16 96
e 16 107
e 16 108
e 16 109
e 16 110
e 16 111
e 16 118
e 16 119
e 16 147
e 16 178
e 16 187
e 16 189
e 16 200
e 17 27
e 17 58
e 17 74
e 17 85
e 17 86
e 17 95
e 17 96
e 17 107
e 17 108
e 17 109
e 17 110
e 17 118
e 17 147
e 17 200
e 18 27
e 18 58
e 18 74
e 18 85
e 18 86
e 18 95
e 18 96
e 18 107
e 18 108
e 18 109
e 18 110
e 18 118
e 18 147
e 18 200
e 20 21
e 20 22
e 20 27
e 20 28
e 20 30
e 20 31
e 20 32
e 20 33
e 20 34
e 20 35
e 20 38
e 20 39
e 20 40
e 20 41
e 20 42
e 20 43
e 20 49
e 20 50
e 20 58
e 20 61
e 20 63
e 20 65
e 20 66
e 20 67
e 20 68
e 20 74
e 20 75
e 20 76
e 20 77
e 20 78
e 20 79
e 20 85
e 20 86
e 20 88
e 20 89
e 20 95
e 20 96
e 20 98
e 20 99
e 20 100
e 20 101
e 20 107
e 20 108
e 20 109
e 20 110
e 20 111
e 20 112
e 20 113
e 20 118
e 20 119
e 20 123
e 20 124
e 20 125
e 20 126
e 20 132
e 20 133
e 20 134
e 20 135
e 20 136
e 20 137
e 20 138
e 20 143
e 20 147
e 20 149
e 20 152
e 20 157
e 20 158
e 20 159
e 20 167
e 20 169
e 20 170
e 20 171
e 20 172
e 20 177
e 20 178
e 20 182
e 20 183
e 20 187
e 20 188
e 20 189
e 20 191
e 20 192
e 20 200
e 20 201
e 20 202
e 20 203
e 20 204
e 21 22
e 21 27
e 21 28
e 21 31
e 21 32
e 21 34
e 21 35
e 21 42
e 21 43
e 21 49
e 21 50
e 21 58
e 21 63
e 21 66
e 21 74
e 21 75
e 21 76
e 21 77
e 21 78
e 21 80
e 21 85
e 21 86
e 21 89
e 21 90
e 21 95
e 21 96
e 21 99
e 21 107
e 21 108
e 21 109
e 21 110
e 21 111
e 21 113
e 21 118
e 21 119
e 21 125
e 21 126
e 21 134
e 21 136
e 21 143
e 21 147
e 21 149
e 21 152
e 21 157
e 21 158
e 21 167
e 21 172
e 21 173
e 21 177
e 21 178
e 21 182
e 21 183
e 21 187
e 21 192
e 21 200
e 21 201
e 21 203
e 21 204
e 22 27
e 22 28
e 22 31
e 22 32
e 22 34
e 22 35
e 22 42
e 22 43
e 22 49
e 22 50
e 22 58
e 22 63
e 22 66
e 22 74
e 22 75
e 22 76
e 22 77
e 22 78
e 22 80
e 22 85
e 22 86
e 22 89
e 22 90
e 22 95
e 22 96
e 22 99
e 22 107
e 22 108
e 22 109
e 22 110
e 22 111
e 22 113
e 22 118
e 22 119
e 22 125
e 22 126
e 22 134
e 22 136
e 22 143
e 22 147
e 22 149
e 22 157
e 22 158
e 22 172
e 22 173
e 22 177
e 22 178
e 22 182
e 22 183
e 22 187
e 22 192
e 22 200
e 22 201
e 22 203
e 22 204
e 23 27
e 23 44
e 23 58
e 23 59
e 23 60
e 23 62
e 23 74
e 23 85
e 23 86
e 23 95
e 23 96
e 23 107
e 23 108
e 23 109
e 23 110
e 23 118
e 23 119
e 23 121
e 23 139
e 23 147
e 23 153
e 23 179
e 23 181
e 23 200
e 24 27
e 24 58
e 24 74
e 24 85
e 24 86
e 24 95
e 24 96
e 24 107
e 24 108
e 24 109
e 24 118
e 24 147
e 24 200
e 27 28
e 27 30
e 27 31
e 27 32
e 27 33
e 27 34
e 27 35
e 27 38
e 27 39
e 27 40
e 27 41
e 27 42
e 27 43
e 27 44
e 27 45
e 27 49
e 27 50
e 27 51
e 27 52
e 27 53
e 27 58
e 27 61
e 27 62
e 27 63
e 27 65
e 27 66
e 27 67
e 27 68
e 27 69
e 27 70
e 27 74
e 27 75
e 27 79
e 27 80
e 27 81
e 27 82
e 27 83
e 27 85
e 27 86
e 27 88
e 27 89
e 27 90
e 27 95
e 27 96
e 27 98
e 27 99
e 27 100
e 27 101
e 27 107
e 27 108
e 27 109
e 27 110
e 27 111
e 27 112
e 27 113
e 27 118
e 27 121
e 27 123
e 27 124
e 27 125
e 27 126
e 27 127
e 27 132
e 27 133
e 27 134
e 27 135
e 27 136
e 27 137
e 27 138
e 27 139
e 27 143
e 27 145
e 27 146
e 27 147
e 27 152
e 27 153
e 27 157
e 27 158
e 27 159
e 27 161
e 27 167
e 27 169
e 27 170
e 27 171
e 27 172
e 27 173
e 27 177
e 27 178
e 27 179
e 27 181
e 27 182
e 27 183
e 27 187
e 27 188
e 27 189
e 27 191
e 27 192
e 27 193
e 27 200
e 27 202
e 27 203
e 27 204
e 27 205
e 27 206
e 28 30
e 28 31
e 28 33
e 28 34
e 28 35
e 28 38
e 28 39
e 28 40
e 28 41
e 28 42
e 28 43
e 28 49
e 28 50
e 28 58
e 28 61
e 28 63
e 28 65
e 28 66
e 28 67
e 28 68
e 28 74
e 28 75
e 28 79
e 28 80
e 28 85
e 28 86
e 28 88
e 28 89
e 28 90
e 28 95
e 28 96
e 28 98
e 28 99
e 28 100
e 28 101
e 28 107
e 28 108
e 28 109
e 28 110
e 28 111
e 28 112
e 28 113
e 28 118
e 28 119
e 28 123
e 28 124
e 28 125
e 28 126
e 28 132
e 28 133
e 28 134
e 28 135
e 28 136
e 28 137
e 28 138
e 28 143
e 28 147
e 28 152
e 28 157
e 28 158
e 28 159
e 28 167
e 28 169
e 28 170
e 28 171
e 28 172
e 28 173
e 28 177
e 28 178
e 28 182
e 28 183
e 28 187
e 28 188
e 28 189
e 28 191
e 28 192
e 28 200
e 28 202
e 28 204
e 29 48
e 29 51
e 29 52
e 29 59
e 29 60
e 29 62
e 29 64
e 29 69
e 29 76
e 29 77
e 29 78
e 29 81
e 29 87
e 29 97
e 29 119
e 29 120
e 29 121
e 29 122
e 29 131
e 29 139
e 29 140
e 29 141
e 29 142
e 29 144
e 29 145
e 29 148
e 29 149
e 29 150
e 29 151
e 29 153
e 29 154
e 29 155
e 29 156
e 29 160
e 29 168
e 29 179
e 29 180
e 29 190
e 29 201
e 30 38
e 30 58
e 30 67
e 30 74
e 30 75
e 30 85
e 30 86
e 30 95
e 30 96
e 30 107
e 30 108
e 30 109
e 30 110
e 30 111
e 30 118
e 30 119
e 30 147
e 30 171
e 30 177
e 30 178
e 30 187
e 30 188
e 30 200
e 31 58
e 31 63
e 31 74
e 31 75
e 31 85
e 31 86
e 31 95
e 31 96
e 31 99
e 31 107
e 31 108
e 31 109
e 31 110
e 31 111
e 31 118
e 31 119
e 31 134
e 31 147
e 31 177
e 31 200
e 32 58
e 32 74
e 32 75
e 32 85
e 32 86
e 32 95
e 32 96
e 32 107
e 32 108
e 32 109
e 32 110
e 32 111
e 32 118
e 32 119
e 32 147
e 32 177
e 32 178
e 32 187
e 32 200
e 33 58
e 33 61
e 33 74
e 33 75
e 33 85
e 33 86
e 33 95
e 33 96
e 33 107
e 33 108
e 33 109
e 33 110
e 33 111
e 33 118
e 33 119
e 33 147
e 33 178
e 33 187
e 33 189
e 33 200
e 34 58
e 34 74
e 34 75
e 34 85
e 34 86
e 34 95
e 34 96
e 34 107
e 34 108
e 34 109
e 34 110
e 34 111
e 34 113
e 34 118
e 34 119
e 34 147
e 34 177
e 34 200
e 35 58
e 35 74
e 35 75
e 35 85
e 35 86
e 35 95
e 35 96
e 35 107
e 35 108
e 35 109
e 35 110
e 35 111
e 35 118
e 35 119
e 35 147
e 35 177
e 35 200
e 38 39
e 38 58
e 38 65
e 38 67
e 38 74
e 38 75
e 38 85
e 38 86
e 38 95
e 38 96
e 38 107
e 38 108
e 38 109
e 38 110
e 38 111
e 38 118
e 38 119
e 38 124
e 38 147
e 38 167
e 38 171
e 38 177
e 38 178
e 38 187
e 38 188
e 38 189
e 38 200
e 39 58
e 39 65
e 39 74
e 39 75
e 39 79
e 39 85
e 39 86
e 39 95
e 39 96
e 39 107
e 39 108
e 39 109
e 39 110
e 39 111
e 39 118
e 39 119
e 39 123
e 39 124
e 39 147
e 39 167
e 39 177
e 39 178
e 39 187
e 39 188
e 39 191
e 39 200
e 40 41
e 40 58
e 40 61
e 40 74
e 40 75
e 40 85
e 40 86
e 40 95
e 40 96
e 40 107
e 40 108
e 40 109
e 40 110
e 40 111
e 40 112
e 40 118
e 40 119
e 40 135
e 40 147
e 40 169
e 40 170
e 40 177
e 40 178
e 40 187
e 40 189
e 40 200
e 41 58
e 41 61
e 41 74
e 41 75
e 41 85
e 41 86
e 41 95
e 41 96
e 41 107
e 41 108
e 41 109
e 41 110
e 41 111
e 41 118
e 41 119
e 41 147
e 41 177
e 41 178
e 41 187
e 41 189
e 41 200
e 41 202
e 42 58
e 42 74
e 42 75
e 42 85
e 42 86
e 42 95
e 42 96
e 42 107
e 42 108
e 42 109
e 42 110
e 42 111
e 42 118
e 42 119
e 42 147
e 42 177
e 42 178
e 42 187
e 42 200
e 43 58
e 43 74
e 43 75
e 43 85
e 43 86
e 43 95
e 43 96
e 43 107
e 43 108
e 43 109
e 43 110
e 43 111
e 43 118
e 43 119
e 43 147
e 43 177
e 43 200
e 44 58
e 44 62
e 44 74
e 44 85
e 44 86
e 44 95
e 44 96
e 44 107
e 44 108
e 44 109
e 44 110
e 44 118
e 44 119
e 44 121
e 44 139
e 44 147
e 44 153
e 44 179
e 44 181
e 44 200
e 45 58
e 45 74
e 45 80
e 45 85
e 45 86
e 45 95
e 45 96
e 45 107
e 45 108
e 45 109
e 45 118
e 45 147
e 45 200
e 48 51
e 48 52
e 48 59
e 48 60
e 48 62
e 48 64
e 48 76
e 48 77
e 48 78
e 48 81
e 48 87
e 48 97
e 48 119
e 48 120
e 48 122
e 48 131
e 48 139
e 48 140
e 48 141
e 48 142
e 48 144
e 48 148
e 48 149
e 48 150
e 48 151
e 48 153
e 48 154
e 48 155
e 48 156
e 48 160
e 48 168
e 48 180
e 48 190
e 48 201
e 49 58
e 49 74
e 49 75
e 49 85
e 49 86
e 49 95
e 49 96
e 49 107
e 49 108
e 49 109
e 49 110
e 49 111
e 49 118
e 49 119
e 49 147
e 49 177
e 49 178
e 49 187
e 49 200
e 50 58
e 50 74
e 50 75
e 50 85
e 50 86
e 50 95
e 50 96
e 50 107
e 50 108
e 50 109
e 50 110
e 50 111
e 50 118
e 50 119
e 50 147
e 50 177
e 50 178
e 50 187
e 50 200
e 51 58
e 51 59
e 51 60
e 51 74
e 51 85
e 51 86
e 51 87
e 51 95
e 51 96
e 51 107
e 51 108
e 51 109
e 51 118
e 51 120
e 51 147
e 51 148
e 51 200
e 52 58
e 52 59
e 52 60
e 52 74
e 52 85
e 52 86
e 52 95
e 52 96
e 52 107
e 52 108
e 52 109
e 52 118
e 52 120
e 52 147
e 52 148
e 52 200
e 53 58
e 53 74
e 53 85
e 53 86
e 53 95
e 53 96
e 53 107
e 53 108
e 53 109
e 53 110
e 53 118
e 53 147
e 53 200
e 58 61
e 58 62
e 58 63
e 58 64
e 58 65
e 58 66
e 58 67
e 58 68
e 58 69
e 58 70
e 58 74
e 58 75
e 58 79
e 58 80
e 58 81
e 58 82
e 58 83
e 58 85
e 58 86
e 58 88
e 58 89
e 58 90
e 58 95
e 58 96
e 58 97
e 58 98
e 58 99
e 58 100
e 58 101
e 58 107
e 58 108
e 58 109
e 58 110
e 58 111
e 58 112
e 58 113
e 58 118
e 58 121
e 58 122
e 58 123
e 58 124
e 58 125
e 58 126
e 58 127
e 58 132
e 58 133
e 58 134
e 58 135
e 58 136
e 58 137
e 58 138
e 58 139
e 58 143
e 58 144
e 58 145
e 58 146
e 58 147
e 58 150
e 58 151
e 58 152
e 58 153
e 58 155
e 58 157
e 58 158
e 58 159
e 58 160
e 58 161
e 58 167
e 58 168
e 58 169
e 58 170
e 58 171
e 58 172
e 58 173
e 58 177
e 58 178
e 58 179
e 58 180
e 58 181
e 58 182
e 58 183
e 58 187
e 58 188
e 58 189
e 58 190
e 58 191
e 58 192
e 58 193
e 58 200
e 58 202
e 58 203
e 58 204
e 58 205
e 58 206
e 59 60
e 59 62
e 59 64
e 59 69
e 59 76
e 59 77
e 59 78
e 59 81
e 59 82
e 59 83
e 59 87
e 59 97
e 59 119
e 59 120
e 59 121
e 59 122
e 59 131
e 59 139
e 59 140
e 59 141
e 59 142
e 59 144
e 59 145
e 59 148
e 59 149
e 59 150
e 59 151
e 59 153
e 59 154
e 59 155
e 59 156
e 59 160
e 59 168
e 59 179
e 59 180
e 59 181
e 59 190
e 59 193
e 59 201
e 60 62
e 60 64
e 60 69
e 60 76
e 60 77
e 60 78
e 60 81
e 60 82
e 60 83
e 60 87
e 60 97
e 60 119
e 60 120
e 60 121
e 60 122
e 60 131
e 60 139
e 60 140
e 60 141
e 60 142
e 60 144
e 60 145
e 60 148
e 60 149
e 60 150
e 60 151
e 60 153
e 60 154
e 60 155
e 60 156
e 60 160
e 60 168
e 60 179
e 60 180
e 60 181
e 60 190
e 60 201
e 61 74
e 61 75
e 61 85
e 61 86
e 61 95
e 61 96
e 61 100
e 61 101
e 61 107
e 61 108
e 61 109
e 61 110
e 61 111
e 61 112
e 61 118
e 61 119
e 61 135
e 61 138
e 61 147
e 61 159
e 61 169
e 61 170
e 61 177
e 61 178
e 61 187
e 61 189
e 61 200
e 61 202
e 62 74
e 62 85
e 62 86
e 62 95
e 62 96
e 62 107
e 62 108
e 62 109
e 62 110
e 62 118
e 62 119
e 62 120
e 62 121
e 62 139
e 62 147
e 62 148
e 62 153
e 62 179
e 62 181
e 62 200
e 63 66
e 63 74
e 63 75
e 63 85
e 63 86
e 63 95
e 63 96
e 63 99
e 63 107
e 63 108
e 63 109
e 63 110
e 63 111
e 63 118
e 63 119
e 63 134
e 63 147
e 63 177
e 63 187
e 63 192
e 63 200
e 64 74
e 64 76
e 64 77
e 64 78
e 64 85
e 64 87
e 64 95
e 64 97
e 64 107
e 64 118
e 64 119
e 64 120
e 64 140
e 64 148
e 64 149
e 64 150
e 64 151
e 64 168
e 64 180
e 64 190
e 64 200
e 64 201
e 65 74
e 65 75
e 65 85
e 65 86
e 65 95
e 65 96
e 65 107
e 65 108
e 65 109
e 65 110
e 65 111
e 65 118
e 65 119
e 65 147
e 65 177
e 65 178
e 65 187
e 65 188
e 65 200
e 66 74
e 66 75
e 66 85
e 66 86
e 66 95
e 66 96
e 66 107
e 66 108
e 66 109
e 66 110
e 66 111
e 66 118
e 66 119
e 66 134
e 66 147
e 66 177
e 66 200
e 67 74
e 67 75
e 67 85
e 67 86
e 67 95
e 67 96
e 67 107
e 67 108
e 67 109
e 67 110
e 67 111
e 67 118
e 67 119
e 67 147
e 67 177
e 67 178
e 67 187
e 67 200
e 68 74
e 68 75
e 68 85
e 68 86
e 68 95
e 68 96
e 68 107
e 68 108
e 68 109
e 68 110
e 68 111
e 68 118
e 68 119
e 68 147
e 68 177
e 68 178
e 68 187
e 68 200
e 69 74
e 69 85
e 69 86
e 69 95
e 69 96
e 69 107
e 69 108
e 69 109
e 69 118
e 69 120
e 69 147
e 69 148
e 69 200
e 70 74
e 70 80
e 70 85
e 70 86
e 70 95
e 70 96
e 70 107
e 70 108
e 70 109
e 70 118
e 70 147
e 70 200
e 74 75
e 74 79
e 74 80
e 74 81
e 74 82
e 74 83
e 74 85
e 74 86
e 74 88
e 74 89
e 74 90
e 74 95
e 74 96
e 74 97
e 74 98
e 74 99
e 74 100
e 74 101
e 74 107
e 74 108
e 74 109
e 74 110
e 74 111
e 74 112
e 74 113
e 74 118
e 74 121
e 74 122
e 74 123
e 74 124
e 74 125
e 74 126
e 74 127
e 74 132
e 74 133
e 74 134
e 74 135
e 74 136
e 74 137
e 74 138
e 74 139
e 74 143
e 74 144
e 74 145
e 74 146
e 74 147
e 74 150
e 74 151
e 74 152
e 74 153
e 74 155
e 74 157
e 74 158
e 74 159
e 74 160
e 74 161
e 74 167
e 74 168
e 74 169
e 74 170
e 74 171
e 74 172
e 74 173
e 74 177
e 74 178
e 74 179
e 74 180
e 74 181
e 74 182
e 74 183
e 74 187
e 74 188
e 74 189
e 74 190
e 74 191
e 74 192
e 74 193
e 74 200
e 74 202
e 74 203
e 74 204
e 74 205
e 74 206
e 75 76
e 75 77
e 75 78
e 75 79
e 75 85
e 75 86
e 75 88
e 75 89
e 75 95
e 75 96
e 75 98
e 75 99
e 75 100
e 75 101
e 75 107
e 75 108
e 75 109
e 75 110
e 75 111
e 75 112
e 75 113
e 75 118
e 75 119
e 75 123
e 75 124
e 75 125
e 75 126
e 75 132
e 75 133
e 75 134
e 75 135
e 75 136
e 75 137
e 75 138
e 75 143
e 75 147
e 75 149
e 75 152
e 75 157
e 75 158
e 75 159
e 75 167
e 75 169
e 75 170
e 75 171
e 75 172
e 75 177
e 75 178
e 75 182
e 75 183
e 75 187
e 75 188
e 75 189
e 75 191
e 75 192
e 75 200
e 75 201
e 75 202
e 75 203
e 75 204
e 76 77
e 76 78
e 76 80
e 76 87
e 76 97
e 76 110
e 76 111
e 76 119
e 76 120
e 76 122
e 76 131
e 76 140
e 76 141
e 76 142
e 76 144
e 76 148
e 76 149
e 76 150
e 76 151
e 76 154
e 76 155
e 76 156
e 76 160
e 76 168
e 76 177
e 76 180
e 76 190
e 76 201
e 77 78
e 77 80
e 77 87
e 77 97
e 77 110
e 77 111
e 77 119
e 77 120
e 77 122
e 77 131
e 77 140
e 77 141
e 77 142
e 77 144
e 77 148
e 77 149
e 77 150
e 77 151
e 77 154
e 77 155
e 77 156
e 77 160
e 77 168
e 77 177
e 77 180
e 77 190
e 77 201
e 78 80
e 78 87
e 78 97
e 78 110
e 78 111
e 78 119
e 78 120
e 78 122
e 78 131
e 78 140
e 78 141
e 78 142
e 78 144
e 78 148
e 78 149
e 78 150
e 78 151
e 78 154
e 78 155
e 78 156
e 78 160
e 78 168
e 78 177
e 78 180
e 78 190
e 78 201
e 79 85
e 79 86
e 79 95
e 79 96
e 79 98
e 79 107
e 79 108
e 79 109
e 79 110
e 79 111
e 79 118
e 79 119
e 79 123
e 79 147
e 79 152
e 79 167
e 79 177
e 79 178
e 79 187
e 79 188
e 79 200
e 80 85
e 80 86
e 80 90
e 80 95
e 80 96
e 80 107
e 80 108
e 80 109
e 80 110
e 80 118
e 80 119
e 80 127
e 80 147
e 80 149
e 80 200
e 80 201
e 80 205
e 81 85
e 81 86
e 81 95
e 81 96
e 81 107
e 81 108
e 81 109
e 81 118
e 81 120
e 81 147
e 81 148
e 81 200
e 82 85
e 82 86
e 82 95
e 82 96
e 82 107
e 82 108
e 82 109
e 82 118
e 82 120
e 82 147
e 82 200
e 83 85
e 83 86
e 83 95
e 83 96
e 83 107
e 83 108
e 83 109
e 83 118
e 83 147
e 83 200
e 85 86
e 85 88
e 85 89
e 85 90
e 85 95
e 85 96
e 85 97
e 85 98
e 85 99
e 85 100
e 85 101
e 85 107
e 85 108
e 85 109
e 85 110
e 85 111
e 85 112
e 85 113
e 85 118
e 85 121
e 85 122
e 85 123
e 85 124
e 85 125
e 85 126
e 85 127
e 85 131
e 85 132
e 85 133
e 85 134
e 85 135
e 85 136
e 85 137
e 85 138
e 85 139
e 85 141
e 85 142
e 85 143
e 85 144
e 85 145
e 85 146
e 85 147
e 85 150
e 85 151
e 85 152
e 85 153
e 85 154
e 85 155
e 85 156
e 85 157
e 85 158
e 85 159
e 85 160
e 85 161
e 85 167
e 85 168
e 85 169
e 85 170
e 85 171
e 85 172
e 85 173
e 85 177
e 85 178
e 85 179
e 85 180
e 85 181
e 85 182
e 85 183
e 85 187
e 85 188
e 85 189
e 85 190
e 85 191
e 85 192
e 85 193
e 85 200
e 85 202
e 85 203
e 85 204
e 85 205
e 85 206
e 86 88
e 86 89
e 86 90
e 86 95
e 86 96
e 86 98
e 86 99
e 86 100
e 86 101
e 86 107
e 86 108
e 86 109
e 86 110
e 86 111
e 86 112
e 86 113
e 86 118
e 86 121
e 86 122
e 86 123
e 86 124
e 86 125
e 86 126
e 86 127
e 86 132
e 86 133
e 86 134
e 86 135
e 86 136
e 86 137
e 86 138
e 86 139
e 86 143
e 86 145
e 86 146
e 86 147
e 86 152
e 86 153
e 86 154
e 86 157
e 86 158
e 86 159
e 86 161
e 86 167
e 86 169
e 86 170
e 86 171
e 86 172
e 86 173
e 86 177
e 86 178
e 86 179
e 86 181
e 86 182
e 86 183
e 86 187
e 86 188
e 86 189
e 86 191
e 86 192
e 86 193
e 86 200
e 86 202
e 86 203
e 86 204
e 86 205
e 86 206
e 87 97
e 87 119
e 87 120
e 87 122
e 87 131
e 87 139
e 87 140
e 87 141
e 87 142
e 87 144
e 87 148
e 87 149
e 87 150
e 87 151
e 87 154
e 87 155
e 87 156
e 87 160
e 87 168
e 87 180
e 87 190
e 87 201
e 88 95
e 88 96
e 88 107
e 88 108
e 88 109
e 88 110
e 88 111
e 88 118
e 88 119
e 88 147
e 88 152
e 88 167
e 88 177
e 88 178
e 88 187
e 88 188
e 88 200
e 89 95
e 89 96
e 89 107
e 89 108
e 89 109
e 89 110
e 89 111
e 89 118
e 89 119
e 89 147
e 89 177
e 89 178
e 89 182
e 89 187
e 89 200
e 90 95
e 90 96
e 90 107
e 90 108
e 90 109
e 90 110
e 90 118
e 90 119
e 90 147
e 90 200
e 95 96
e 95 97
e 95 98
e 95 99
e 95 100
e 95 101
e 95 107
e 95 108
e 95 109
e 95 110
e 95 111
e 95 112
e 95 113
e 95 118
e 95 121
e 95 122
e 95 123
e 95 124
e 95 125
e 95 126
e 95 127
e 95 132
e 95 133
e 95 134
e 95 135
e 95 136
e 95 137
e 95 138
e 95 139
e 95 143
e 95 144
e 95 145
e 95 146
e 95 147
e 95 150
e 95 151
e 95 152
e 95 153
e 95 155
e 95 157
e 95 158
e 95 159
e 95 160
e 95 161
e 95 167
e 95 168
e 95 169
e 95 170
e 95 171
e 95 172
e 95 173
e 95 177
e 95 178
e 95 179
e 95 180
e 95 181
e 95 182
e 95 183
e 95 187
e 95 188
e 95 189
e 95 190
e 95 191
e 95 192
e 95 193
e 95 200
e 95 202
e 95 203
e 95 204
e 95 205
e 95 206
e 96 98
e 96 99
e 96 100
e 96 101
e 96 107
e 96 108
e 96 109
e 96 110
e 96 111
e 96 112
e 96 113
e 96 118
e 96 121
e 96 122
e 96 123
e 96 124
e 96 125
e 96 126
e 96 127
e 96 131
e 96 132
e 96 133
e 96 134
e 96 135
e 96 136
e 96 137
e 96 138
e 96 139
e 96 141
e 96 142
e 96 143
e 96 144
e 96 145
e 96 146
e 96 147
e 96 150
e 96 152
e 96 153
e 96 154
e 96 155
e 96 156
e 96 157
e 96 158
e 96 159
e 96 160
e 96 161
e 96 167
e 96 169
e 96 170
e 96 171
e 96 172
e 96 173
e 96 177
e 96 178
e 96 179
e 96 181
e 96 182
e 96 183
e 96 187
e 96 188
e 96 189
e 96 191
e 96 192
e 96 193
e 96 200
e 96 202
e 96 203
e 96 204
e 96 205
e 96 206
e 97 107
e 97 118
e 97 119
e 97 120
e 97 140
e 97 148
e 97 149
e 97 150
e 97 151
e 97 168
e 97 180
e 97 190
e 97 200
e 97 201
e 98 107
e 98 108
e 98 109
e 98 110
e 98 111
e 98 118
e 98 119
e 98 147
e 98 152
e 98 167
e 98 177
e 98 178
e 98 187
e 98 188
e 98 200
e 99 107
e 99 108
e 99 109
e 99 110
e 99 111
e 99 118
e 99 119
e 99 134
e 99 147
e 99 177
e 99 200
e 100 107
e 100 108
e 100 109
e 100 110
e 100 111
e 100 118
e 100 119
e 100 147
e 100 177
e 100 178
e 100 187
e 100 189
e 100 200
e 101 107
e 101 108
e 101 109
e 101 110
e 101 111
e 101 118
e 101 119
e 101 147
e 101 178
e 101 187
e 101 189
e 101 200
e 107 108
e 107 109
e 107 110
e 107 111
e 107 112
e 107 113
e 107 118
e 107 121
e 107 122
e 107 123
e 107 124
e 107 125
e 107 126
e 107 127
e 107 132
e 107 133
e 107 134
e 107 135
e 107 136
e 107 137
e 107 138
e 107 139
e 107 143
e 107 144
e 107 145
e 107 146
e 107 147
e 107 150
e 107 151
e 107 152
e 107 153
e 107 155
e 107 157
e 107 158
e 107 159
e 107 160
e 107 161
e 107 167
e 107 168
e 107 169
e 107 170
e 107 171
e 107 172
e 107 173
e 107 177
e 107 178
e 107 179
e 107 180
e 107 181
e 107 182
e 107 183
e 107 187
e 107 188
e 107 189
e 107 190
e 107 191
e 107 192
e 107 193
e 107 200
e 107 202
e 107 203
e 107 204
e 107 205
e 107 206
e 108 109
e 108 110
e 108 111
e 108 112
e 108 113
e 108 118
e 108 121
e 108 122
e 108 123
e 108 124
e 108 125
e 108 126
e 108 127
e 108 131
e 108 132
e 108 133
e 108 134
e 108 135
e 108 136
e 108 137
e 108 138
e 108 139
e 108 141
e 108 142
e 108 143
e 108 144
e 108 145
e 108 146
e 108 147
e 108 152
e 108 153
e 108 154
e 108 155
e 108 156
e 108 157
e 108 158
e 108 159
e 108 160
e 108 161
e 108 167
e 108 169
e 108 170
e 108 171
e 108 172
e 108 173
e 108 177
e 108 178
e 108 179
e 108 181
e 108 182
e 108 183
e 108 187
e 108 188
e 108 189
e 108 191
e 108 192
e 108 193
e 108 200
e 108 202
e 108 203
e 108 204
e 108 205
e 108 206
e 109 110
e 109 111
e 109 112
e 109 113
e 109 118
e 109 121
e 109 122
e 109 123
e 109 124
e 109 125
e 109 126
e 109 127
e 109 131
e 109 132
e 109 133
e 109 134
e 109 135
e 109 136
e 109 137
e 109 138
e 109 139
e 109 143
e 109 145
e 109 146
e 109 147
e 109 152
e 109 153
e 109 154
e 109 155
e 109 157
e 109 158
e 109 159
e 109 161
e 109 167
e 109 169
e 109 170
e 109 171
e 109 172
e 109 173
e 109 177
e 109 178
e 109 179
e 109 181
e 109 182
e 109 183
e 109 187
e 109 188
e 109 189
e 109 191
e 109 192
e 109 193
e 109 200
e 109 202
e 109 203
e 109 204
e 109 205
e 109 206
e 110 111
e 110 112
e 110 113
e 110 118
e 110 119
e 110 121
e 110 123
e 110 124
e 110 125
e 110 126
e 110 132
e 110 133
e 110 134
e 110 135
e 110 136
e 110 137
e 110 138
e 110 139
e 110 143
e 110 147
e 110 149
e 110 152
e 110 153
e 110 157
e 110 158
e 110 159
e 110 167
e 110 169
e 110 170
e 110 171
e 110 172
e 110 173
e 110 177
e 110 178
e 110 179
e 110 181
e 110 182
e 110 183
e 110 187
e 110 188
e 110 189
e 110 191
e 110 192
e 110 200
e 110 201
e 110 202
e 110 203
e 110 204
e 111 112
e 111 113
e 111 118
e 111 119
e 111 123
e 111 124
e 111 125
e 111 126
e 111 132
e 111 133
e 111 134
e 111 135
e 111 136
e 111 137
e 111 138
e 111 143
e 111 147
e 111 149
e 111 152
e 111 157
e 111 158
e 111 159
e 111 167
e 111 169
e 111 170
e 111 171
e 111 172
e 111 177
e 111 178
e 111 182
e 111 183
e 111 187
e 111 188
e 111 189
e 111 191
e 111 192
e 111 200
e 111 201
e 111 202
e 111 203
e 111 204
e 112 118
e 112 119
e 112 147
e 112 169
e 112 177
e 112 178
e 112 187
e 112 189
e 112 200
e 113 118
e 113 119
e 113 147
e 113 177
e 113 200
e 118 121
e 118 122
e 118 123
e 118 124
e 118 125
e 118 126
e 118 127
e 118 132
e 118 133
e 118 134
e 118 135
e 118 136
e 118 137
e 118 138
e 118 139
e 118 143
e 118 144
e 118 145
e 118 146
e 118 147
e 118 150
e 118 151
e 118 152
e 118 153
e 118 155
e 118 157
e 118 158
e 118 159
e 118 160
e 118 161
e 118 167
e 118 168
e 118 169
e 118 170
e 118 171
e 118 172
e 118 173
e 118 177
e 118 178
e 118 179
e 118 180
e 118 181
e 118 182
e 118 183
e 118 187
e 118 188
e 118 189
e 118 190
e 118 191
e 118 192
e 118 193
e 118 200
e 118 202
e 118 203
e 118 204
e 118 205
e 118 206
e 119 120
e 119 121
e 119 122
e 119 123
e 119 124
e 119 125
e 119 126
e 119 131
e 119 132
e 119 133
e 119 134
e 119 135
e 119 136
e 119 137
e 119 138
e 119 139
e 119 140
e 119 141
e 119 142
e 119 143
e 119 144
e 119 148
e 119 149
e 119 150
e 119 151
e 119 152
e 119 153
e 119 154
e 119 155
e 119 156
e 119 157
e 119 158
e 119 159
e 119 160
e 119 167
e 119 168
e 119 169
e 119 170
e 119 171
e 119 172
e 119 173
e 119 177
e 119 178
e 119 179
e 119 180
e 119 181
e 119 182
e 119 183
e 119 187
e 119 188
e 119 189
e 119 190
e 119 191
e 119 192
e 119 201
e 119 202
e 119 203
e 119 204
e 120 121
e 120 122
e 120 131
e 120 139
e 120 140
e 120 141
e 120 142
e 120 144
e 120 145
e 120 148
e 120 149
e 120 150
e 120 151
e 120 153
e 120 154
e 120 155
e 120 156
e 120 160
e 120 168
e 120 179
e 120 180
e 120 181
e 120 190
e 120 201
e 121 139
e 121 147
e 121 153
e 121 179
e 121 181
e 121 200
e 122 140
e 122 147
e 122 148
e 122 149
e 122 200
e 122 201
e 123 147
e 123 167
e 123 177
e 123 178
e 123 187
e 123 188
e 123 200
e 124 147
e 124 167
e 124 177
e 124 178
e 124 187
e 124 188
e 124 200
e 125 147
e 125 177
e 125 178
e 125 187
e 125 200
e 126 147
e 126 177
e 126 178
e 126 187
e 126 200
e 127 147
e 127 200
e 127 205
e 131 140
e 131 141
e 131 142
e 131 147
e 131 148
e 131 149
e 131 150
e 131 151
e 131 154
e 131 156
e 131 168
e 131 200
e 131 201
e 132 133
e 132 147
e 132 152
e 132 167
e 132 177
e 132 178
e 132 187
e 132 188
e 132 200
e 133 147
e 133 152
e 133 167
e 133 177
e 133 178
e 133 187
e 133 188
e 133 200
e 134 147
e 134 177
e 134 200
e 135 147
e 135 169
e 135 177
e 135 178
e 135 187
e 135 189
e 135 200
e 136 143
e 136 147
e 136 177
e 136 200
e 137 147
e 137 177
e 137 178
e 137 187
e 137 200
e 138 147
e 138 178
e 138 187
e 138 189
e 138 200
e 139 147
e 139 148
e 139 153
e 139 179
e 139 181
e 139 200
e 140 141
e 140 142
e 140 144
e 140 148
e 140 149
e 140 150
e 140 151
e 140 154
e 140 155
e 140 156
e 140 160
e 140 168
e 140 180
e 140 190
e 140 201
e 141 142
e 141 147
e 141 148
e 141 149
e 141 150
e 141 151
e 141 154
e 141 156
e 141 168
e 141 200
e 141 201
e 142 148
e 142 149
e 142 150
e 142 151
e 142 154
e 142 156
e 142 168
e 142 200
e 142 201
e 143 147
e 143 177
e 143 200
e 144 148
e 144 149
e 144 200
e 144 201
e 145 147
e 145 200
e 146 147
e 146 200
e 147 152
e 147 153
e 147 154
e 147 155
e 147 156
e 147 157
e 147 158
e 147 159
e 147 160
e 147 161
e 147 167
e 147 169
e 147 170
e 147 171
e 147 172
e 147 173
e 147 177
e 147 178
e 147 179
e 147 181
e 147 182
e 147 183
e 147 187
e 147 188
e 147 189
e 147 191
e 147 192
e 147 193
e 147 200
e 147 202
e 147 203
e 147 204
e 147 205
e 147 206
e 148 149
e 148 150
e 148 151
e 148 153
e 148 154
e 148 155
e 148 156
e 148 160
e 148 168
e 148 179
e 148 180
e 148 190
e 148 201
e 149 150
e 149 151
e 149 154
e 149 155
e 149 156
e 149 160
e 149 168
e 149 177
e 149 180
e 149 190
e 149 201
e 150 151
e 150 154
e 150 156
e 150 168
e 150 180
e 150 190
e 150 200
e 150 201
e 151 154
e 151 156
e 151 168
e 151 180
e 151 190
e 151 200
e 151 201
e 152 167
e 152 177
e 152 178
e 152 187
e 152 188
e 152 200
e 153 179
e 153 181
e 153 200
e 154 156
e 154 168
e 154 200
e 154 201
e 155 200
e 155 201
e 156 168
e 156 200
e 156 201
e 157 177
e 157 178
e 157 187
e 157 200
e 158 177
e 158 178
e 158 187
e 158 200
e 159 177
e 159 178
e 159 187
e 159 189
e 159 200
e 160 200
e 160 201
e 161 200
e 167 177
e 167 178
e 167 187
e 167 188
e 167 191
e 167 200
e 168 180
e 168 190
e 168 200
e 168 201
e 169 177
e 169 178
e 169 187
e 169 189
e 169 200
e 170 177
e 170 178
e 170 187
e 170 189
e 170 200
e 171 177
e 171 178
e 171 187
e 171 188
e 171 200
e 172 177
e 172 200
e 173 200
e 177 178
e 177 182
e 177 183
e 177 187
e 177 188
e 177 189
e 177 191
e 177 192
e 177 200
e 177 201
e 177 202
e 177 203
e 177 204
e 178 182
e 178 187
e 178 188
e 178 189
e 178 191
e 178 200
e 178 202
e 178 203
e 179 181
e 179 200
e 180 190
e 180 200
e 180 201
e 181 200
e 182 187
e 182 200
e 183 200
e 187 188
e 187 189
e 187 191
e 187 192
e 187 200
e 187 202
e 187 203
e 188 191
e 188 200
e 189 200
e 189 202
e 190 200
e 190 201
e 191 200
e 192 200
e 193 200
e 200 202
e 200 203
e 200 204
e 200 205
e 200 206
